
        $ From http://www.csplib.org/Problems/prob009/data/helmut.pdf
        $ Problem number 33
        $ Sequence length : 24
        language ESSENCE' 1.0
        letting sizemaster be 288
        letting sizes be sequence(2,7,9,10,15,16,17,18,22,23,25,28,36,39,42,56,57,60,68,72,73,87,129,159)
        